(set-logic BV) (define-fun origCir ((n178 Bool) (n165 Bool) (n152 Bool) (n116 Bool) (n103 Bool)) Bool (and n178 (and n165 (and n152 (and n116 n103))))) (synth-fun skel ((n178 Bool) (n165 Bool) (n152 Bool) (n116 Bool) (n103 Bool)) Bool) (declare-var n178 Bool) (declare-var n165 Bool) (declare-var n152 Bool) (declare-var n116 Bool) (declare-var n103 Bool) (constraint (= (origCir n178 n165 n152 n116 n103) (skel n178 n165 n152 n116 n103))) (check-synth)
